p cnf 199 893
86 115 125 0
71 89 108 0
62 65 69 117 0
75 83 95 109 0
126 131 161 0
120 134 136 0
56 82 137 0
138 144 146 0
99 105 114 0
79 90 119 0
61 64 67 0
58 59 130 0
98 111 124 0
88 101 102 0
77 116 0
55 92 93 185 0
54 139 142 0
52 57 122 0
87 106 132 195 0
72 149 0
68 150 152 0
76 85 154 156 0
158 160 0
103 127 162 0
164 165 0
53 167 170 0
171 173 0
123 175 0
81 91 151 176 0
157 177 178 0
97 180 182 0
128 163 183 0
110 184 0
78 121 0
73 94 143 186 187 0
140 145 168 188 0
148 172 190 0
100 192 193 0
107 133 194 196 0
-108 -117 0
-108 -153 0
-83 -108 0
-108 -197 0
-108 -112 0
-117 -153 0
-83 -117 0
-117 -197 0
-112 -117 0
-83 -153 0
-153 -197 0
-112 -153 0
-83 -197 0
-83 -112 0
-112 -197 0
-67 -90 0
-90 -198 0
-90 -179 0
-59 -90 0
-90 -102 0
-67 -198 0
-67 -179 0
-59 -67 0
-67 -102 0
-179 -198 0
-59 -198 0
-102 -198 0
-59 -179 0
-102 -179 0
-59 -102 0
-55 -135 0
-135 -142 0
-135 -141 0
-57 -135 0
-87 -135 0
-55 -142 0
-55 -141 0
-55 -57 0
-55 -87 0
-141 -142 0
-57 -142 0
-87 -142 0
-57 -141 0
-87 -141 0
-57 -87 0
-150 -199 0
-154 -199 0
-51 -199 0
-158 -199 0
-50 -199 0
-150 -154 0
-51 -150 0
-150 -158 0
-50 -150 0
-51 -154 0
-154 -158 0
-50 -154 0
-51 -158 0
-50 -51 0
-50 -158 0
-81 -118 0
-81 -177 0
-81 -97 0
-49 -81 0
-81 -110 0
-118 -177 0
-97 -118 0
-49 -118 0
-110 -118 0
-97 -177 0
-49 -177 0
-110 -177 0
-49 -97 0
-97 -110 0
-49 -110 0
-48 -73 0
-48 -188 0
-48 -172 0
-47 -48 0
-48 -133 0
-73 -188 0
-73 -172 0
-47 -73 0
-73 -133 0
-172 -188 0
-47 -188 0
-133 -188 0
-47 -172 0
-133 -172 0
-47 -133 0
-90 -108 0
-108 -135 0
-108 -199 0
-81 -108 0
-48 -108 0
-90 -135 0
-90 -199 0
-81 -90 0
-48 -90 0
-135 -199 0
-81 -135 0
-48 -135 0
-81 -199 0
-48 -199 0
-48 -81 0
-67 -117 0
-55 -117 0
-117 -150 0
-117 -118 0
-73 -117 0
-55 -67 0
-67 -150 0
-67 -118 0
-67 -73 0
-55 -150 0
-55 -118 0
-55 -73 0
-118 -150 0
-73 -150 0
-73 -118 0
-153 -198 0
-142 -153 0
-153 -154 0
-153 -177 0
-153 -188 0
-142 -198 0
-154 -198 0
-177 -198 0
-188 -198 0
-142 -154 0
-142 -177 0
-142 -188 0
-154 -177 0
-154 -188 0
-177 -188 0
-83 -179 0
-83 -141 0
-51 -83 0
-83 -97 0
-83 -172 0
-141 -179 0
-51 -179 0
-97 -179 0
-172 -179 0
-51 -141 0
-97 -141 0
-141 -172 0
-51 -97 0
-51 -172 0
-97 -172 0
-59 -197 0
-57 -197 0
-158 -197 0
-49 -197 0
-47 -197 0
-57 -59 0
-59 -158 0
-49 -59 0
-47 -59 0
-57 -158 0
-49 -57 0
-47 -57 0
-49 -158 0
-47 -158 0
-47 -49 0
-102 -112 0
-87 -112 0
-50 -112 0
-110 -112 0
-112 -133 0
-87 -102 0
-50 -102 0
-102 -110 0
-102 -133 0
-50 -87 0
-87 -110 0
-87 -133 0
-50 -110 0
-50 -133 0
-110 -133 0
-71 -125 0
-69 -125 0
-75 -125 0
-125 -126 0
-69 -71 0
-71 -75 0
-71 -126 0
-69 -75 0
-69 -126 0
-75 -126 0
-46 -134 0
-46 -56 0
-46 -138 0
-45 -46 0
-56 -134 0
-134 -138 0
-45 -134 0
-56 -138 0
-45 -56 0
-45 -138 0
-44 -116 0
-93 -116 0
-116 -147 0
-116 -191 0
-44 -93 0
-44 -147 0
-44 -191 0
-93 -147 0
-93 -191 0
-147 -191 0
-42 -164 0
-41 -42 0
-42 -171 0
-40 -42 0
-41 -164 0
-164 -171 0
-40 -164 0
-41 -171 0
-40 -41 0
-40 -171 0
-39 -91 0
-39 -66 0
-39 -180 0
-39 -128 0
-66 -91 0
-91 -180 0
-91 -128 0
-66 -180 0
-66 -128 0
-128 -180 0
-46 -125 0
-116 -125 0
-42 -125 0
-39 -125 0
-46 -116 0
-42 -46 0
-39 -46 0
-42 -116 0
-39 -116 0
-39 -42 0
-71 -134 0
-44 -71 0
-71 -164 0
-71 -91 0
-44 -134 0
-134 -164 0
-91 -134 0
-44 -164 0
-44 -91 0
-91 -164 0
-56 -69 0
-69 -93 0
-41 -69 0
-66 -69 0
-56 -93 0
-41 -56 0
-56 -66 0
-41 -93 0
-66 -93 0
-41 -66 0
-75 -138 0
-75 -147 0
-75 -171 0
-75 -180 0
-138 -147 0
-138 -171 0
-138 -180 0
-147 -171 0
-147 -180 0
-171 -180 0
-45 -126 0
-126 -191 0
-40 -126 0
-126 -128 0
-45 -191 0
-40 -45 0
-45 -128 0
-40 -191 0
-128 -191 0
-40 -128 0
-82 -120 0
-120 -144 0
-38 -120 0
-99 -120 0
-82 -144 0
-38 -82 0
-82 -99 0
-38 -144 0
-99 -144 0
-38 -99 0
-64 -79 0
-79 -181 0
-79 -124 0
-79 -101 0
-64 -181 0
-64 -124 0
-64 -101 0
-124 -181 0
-101 -181 0
-101 -124 0
-37 -185 0
-37 -189 0
-36 -37 0
-37 -132 0
-185 -189 0
-36 -185 0
-132 -185 0
-36 -189 0
-132 -189 0
-36 -132 0
-68 -70 0
-70 -74 0
-70 -127 0
-35 -70 0
-68 -74 0
-68 -127 0
-35 -68 0
-74 -127 0
-35 -74 0
-35 -127 0
-43 -94 0
-43 -148 0
-43 -192 0
-43 -107 0
-94 -148 0
-94 -192 0
-94 -107 0
-148 -192 0
-107 -148 0
-107 -192 0
-79 -120 0
-37 -120 0
-70 -120 0
-43 -120 0
-37 -79 0
-70 -79 0
-43 -79 0
-37 -70 0
-37 -43 0
-43 -70 0
-64 -82 0
-82 -185 0
-68 -82 0
-82 -94 0
-64 -185 0
-64 -68 0
-64 -94 0
-68 -185 0
-94 -185 0
-68 -94 0
-144 -181 0
-144 -189 0
-74 -144 0
-144 -148 0
-181 -189 0
-74 -181 0
-148 -181 0
-74 -189 0
-148 -189 0
-74 -148 0
-38 -124 0
-36 -38 0
-38 -127 0
-38 -192 0
-36 -124 0
-124 -127 0
-124 -192 0
-36 -127 0
-36 -192 0
-127 -192 0
-99 -101 0
-99 -132 0
-35 -99 0
-99 -107 0
-101 -132 0
-35 -101 0
-101 -107 0
-35 -132 0
-107 -132 0
-35 -107 0
-65 -86 0
-86 -95 0
-34 -86 0
-65 -95 0
-34 -65 0
-34 -95 0
-33 -61 0
-32 -33 0
-33 -130 0
-32 -61 0
-61 -130 0
-32 -130 0
-31 -63 0
-31 -182 0
-30 -31 0
-63 -182 0
-30 -63 0
-30 -182 0
-78 -186 0
-78 -190 0
-29 -78 0
-186 -190 0
-29 -186 0
-29 -190 0
-33 -86 0
-31 -86 0
-78 -86 0
-31 -33 0
-33 -78 0
-31 -78 0
-61 -65 0
-63 -65 0
-65 -186 0
-61 -63 0
-61 -186 0
-63 -186 0
-32 -95 0
-95 -182 0
-95 -190 0
-32 -182 0
-32 -190 0
-182 -190 0
-34 -130 0
-30 -34 0
-29 -34 0
-30 -130 0
-29 -130 0
-29 -30 0
-62 -89 0
-89 -155 0
-89 -159 0
-89 -161 0
-28 -89 0
-62 -155 0
-62 -159 0
-62 -161 0
-28 -62 0
-155 -159 0
-155 -161 0
-28 -155 0
-159 -161 0
-28 -159 0
-28 -161 0
-136 -137 0
-136 -166 0
-136 -174 0
-26 -136 0
-114 -136 0
-137 -166 0
-137 -174 0
-26 -137 0
-114 -137 0
-166 -174 0
-26 -166 0
-114 -166 0
-26 -174 0
-114 -174 0
-26 -114 0
-24 -92 0
-24 -54 0
-24 -52 0
-23 -24 0
-24 -106 0
-54 -92 0
-52 -92 0
-23 -92 0
-92 -106 0
-52 -54 0
-23 -54 0
-54 -106 0
-23 -52 0
-52 -106 0
-23 -106 0
-22 -165 0
-53 -165 0
-123 -165 0
-21 -165 0
-20 -165 0
-22 -53 0
-22 -123 0
-21 -22 0
-20 -22 0
-53 -123 0
-21 -53 0
-20 -53 0
-21 -123 0
-20 -123 0
-20 -21 0
-60 -176 0
-157 -176 0
-129 -176 0
-163 -176 0
-176 -184 0
-60 -157 0
-60 -129 0
-60 -163 0
-60 -184 0
-129 -157 0
-157 -163 0
-157 -184 0
-129 -163 0
-129 -184 0
-163 -184 0
-19 -187 0
-19 -168 0
-18 -19 0
-19 -193 0
-19 -194 0
-168 -187 0
-18 -187 0
-187 -193 0
-187 -194 0
-18 -168 0
-168 -193 0
-168 -194 0
-18 -193 0
-18 -194 0
-193 -194 0
-89 -136 0
-24 -89 0
-89 -165 0
-89 -176 0
-19 -89 0
-24 -136 0
-136 -165 0
-136 -176 0
-19 -136 0
-24 -165 0
-24 -176 0
-19 -24 0
-165 -176 0
-19 -165 0
-19 -176 0
-62 -137 0
-62 -92 0
-22 -62 0
-60 -62 0
-62 -187 0
-92 -137 0
-22 -137 0
-60 -137 0
-137 -187 0
-22 -92 0
-60 -92 0
-92 -187 0
-22 -60 0
-22 -187 0
-60 -187 0
-155 -166 0
-54 -155 0
-53 -155 0
-155 -157 0
-155 -168 0
-54 -166 0
-53 -166 0
-157 -166 0
-166 -168 0
-53 -54 0
-54 -157 0
-54 -168 0
-53 -157 0
-53 -168 0
-157 -168 0
-159 -174 0
-52 -159 0
-123 -159 0
-129 -159 0
-18 -159 0
-52 -174 0
-123 -174 0
-129 -174 0
-18 -174 0
-52 -123 0
-52 -129 0
-18 -52 0
-123 -129 0
-18 -123 0
-18 -129 0
-26 -161 0
-23 -161 0
-21 -161 0
-161 -163 0
-161 -193 0
-23 -26 0
-21 -26 0
-26 -163 0
-26 -193 0
-21 -23 0
-23 -163 0
-23 -193 0
-21 -163 0
-21 -193 0
-163 -193 0
-28 -114 0
-28 -106 0
-20 -28 0
-28 -184 0
-28 -194 0
-106 -114 0
-20 -114 0
-114 -184 0
-114 -194 0
-20 -106 0
-106 -184 0
-106 -194 0
-20 -184 0
-20 -194 0
-184 -194 0
-84 -115 0
-109 -115 0
-17 -115 0
-115 -131 0
-16 -115 0
-84 -109 0
-17 -84 0
-84 -131 0
-16 -84 0
-17 -109 0
-109 -131 0
-16 -109 0
-17 -131 0
-16 -17 0
-16 -131 0
-14 -169 0
-14 -146 0
-13 -14 0
-12 -14 0
-14 -105 0
-146 -169 0
-13 -169 0
-12 -169 0
-105 -169 0
-13 -146 0
-12 -146 0
-105 -146 0
-12 -13 0
-13 -105 0
-12 -105 0
-10 -11 0
-9 -11 0
-11 -58 0
-11 -98 0
-11 -88 0
-9 -10 0
-10 -58 0
-10 -98 0
-10 -88 0
-9 -58 0
-9 -98 0
-9 -88 0
-58 -98 0
-58 -88 0
-88 -98 0
-77 -139 0
-8 -77 0
-77 -122 0
-7 -77 0
-77 -195 0
-8 -139 0
-122 -139 0
-7 -139 0
-139 -195 0
-8 -122 0
-7 -8 0
-8 -195 0
-7 -122 0
-122 -195 0
-7 -195 0
-149 -156 0
-6 -149 0
-149 -160 0
-149 -162 0
-27 -149 0
-6 -156 0
-156 -160 0
-156 -162 0
-27 -156 0
-6 -160 0
-6 -162 0
-6 -27 0
-160 -162 0
-27 -160 0
-27 -162 0
-5 -167 0
-5 -173 0
-5 -175 0
-5 -25 0
-5 -113 0
-167 -173 0
-167 -175 0
-25 -167 0
-113 -167 0
-173 -175 0
-25 -173 0
-113 -173 0
-25 -175 0
-113 -175 0
-25 -113 0
-14 -115 0
-11 -115 0
-77 -115 0
-115 -149 0
-5 -115 0
-11 -14 0
-14 -77 0
-14 -149 0
-5 -14 0
-11 -77 0
-11 -149 0
-5 -11 0
-77 -149 0
-5 -77 0
-5 -149 0
-84 -169 0
-10 -84 0
-84 -139 0
-84 -156 0
-84 -167 0
-10 -169 0
-139 -169 0
-156 -169 0
-167 -169 0
-10 -139 0
-10 -156 0
-10 -167 0
-139 -156 0
-139 -167 0
-156 -167 0
-109 -146 0
-9 -109 0
-8 -109 0
-6 -109 0
-109 -173 0
-9 -146 0
-8 -146 0
-6 -146 0
-146 -173 0
-8 -9 0
-6 -9 0
-9 -173 0
-6 -8 0
-8 -173 0
-6 -173 0
-13 -17 0
-17 -58 0
-17 -122 0
-17 -160 0
-17 -175 0
-13 -58 0
-13 -122 0
-13 -160 0
-13 -175 0
-58 -122 0
-58 -160 0
-58 -175 0
-122 -160 0
-122 -175 0
-160 -175 0
-12 -131 0
-98 -131 0
-7 -131 0
-131 -162 0
-25 -131 0
-12 -98 0
-7 -12 0
-12 -162 0
-12 -25 0
-7 -98 0
-98 -162 0
-25 -98 0
-7 -162 0
-7 -25 0
-25 -162 0
-16 -105 0
-16 -88 0
-16 -195 0
-16 -27 0
-16 -113 0
-88 -105 0
-105 -195 0
-27 -105 0
-105 -113 0
-88 -195 0
-27 -88 0
-88 -113 0
-27 -195 0
-113 -195 0
-27 -113 0
-85 -152 0
-15 -152 0
-15 -85 0
-4 -170 0
-4 -104 0
-104 -170 0
-140 -143 0
-143 -196 0
-140 -196 0
-4 -152 0
-143 -152 0
-4 -143 0
-85 -170 0
-85 -140 0
-140 -170 0
-15 -104 0
-15 -196 0
-104 -196 0
-80 -119 0
-80 -96 0
-80 -111 0
-96 -119 0
-111 -119 0
-96 -111 0
-3 -72 0
-72 -76 0
-72 -103 0
-3 -76 0
-3 -103 0
-76 -103 0
-2 -151 0
-2 -178 0
-2 -183 0
-151 -178 0
-151 -183 0
-178 -183 0
-1 -121 0
-121 -145 0
-100 -121 0
-1 -145 0
-1 -100 0
-100 -145 0
-72 -80 0
-2 -80 0
-80 -121 0
-2 -72 0
-72 -121 0
-2 -121 0
-3 -119 0
-119 -151 0
-1 -119 0
-3 -151 0
-1 -3 0
-1 -151 0
-76 -96 0
-96 -178 0
-96 -145 0
-76 -178 0
-76 -145 0
-145 -178 0
-103 -111 0
-111 -183 0
-100 -111 0
-103 -183 0
-100 -103 0
-100 -183 0
